(declare-const a Real)
(declare-const b Real)
(declare-const c Real)
(assert (= (+ a b c) 3))
(assert (> a 0))
(assert (> b 0))
(assert (> c 0))
(assert (not (<= (+ (* -97280 a (pow c 4)) (* -97280 b (pow a 4)) (* -19456 a (pow b 4)) (* -19456 b (pow c 4)) (* -17920 (pow a 2) (pow c 3)) (* -17920 (pow a 3) (pow b 2)) (* 12800 (pow b 3) (pow c 2)) (* 17920 (pow a 2) (pow b 3)) (* 17920 (pow b 2) (pow c 3)) (* 48640 (pow a 3) (pow c 2)) (* (/ -377075 4) c (pow b 4)) (* (/ -65779 4) c (pow a 4)) (* 86016 a b (pow c 3)) (* 98061 a c (pow (+ (/ 2 5) (* (/ 3 5) b)) 5)) (* 98061 b c (pow a 3)) (* (/ 1215 2) c (pow a 2) (pow b 2))) 0)))
(check-sat)
(get-model)
(exit)